N = 10;
H = 6;
T = 2;

avail = array3d(1..N, 1..H, 1..T, [9, 5, 0, 2, 5, 6, 5, 7, 2, 0, 2, 5, 0, 7, 4, 5, 1, 4, 3, 0, 5, 7, 7, 8, 6, 6, 9, 2, 9, 5, 3, 5, 7, 1, 10, 2, 9, 5, 3, 2, 6, 9, 6, 10, 6, 5, 3, 7, 8, 10, 2, 10, 5, 10, 4, 0, 4, 10, 7, 4, 5, 0, 1, 7, 4, 1, 8, 0, 9, 9, 1, 10, 4, 9, 7, 3, 5, 2, 0, 2, 3, 2, 9, 1, 5, 5, 10, 1, 10, 2, 3, 6, 9, 2, 2, 4, 7, 4, 8, 3, 6, 4, 1, 10, 7, 9, 0, 2, 6, 5, 0, 9, 6, 7, 1, 4, 1, 4, 2, 8]);

r = array2d(1..H, 1..T, [3, 0, 0, 2, 2, 2, 2, 3, 2, 3, 2, 2]);
